
Gurobi 8.1.1 (win64) logging started 11/28/19 14:01:11

Changed value of parameter LogFile to logs/drand/rlt/drand-07-110-2.log
   Prev: gurobi.log  Default: 
Changed value of parameter LogToConsole to 0
   Prev: 1  Min: 0  Max: 1  Default: 1
Changed value of parameter TimeLimit to 3600.0
   Prev: 1e+100  Min: 0.0  Max: 1e+100  Default: 1e+100
Optimize a model with 334891 rows, 112101 columns and 784235 nonzeros
Variable types: 0 continuous, 112101 integer (473 binary)
Coefficient statistics:
  Matrix range     [1e+00, 1e+00]
  Objective range  [1e+00, 1e+00]
  Bounds range     [1e+00, 1e+00]
  RHS range        [1e+00, 1e+00]
Presolve time: 4.78s
Presolved: 334891 rows, 112101 columns, 784235 nonzeros
Variable types: 0 continuous, 112101 integer (112101 binary)
Found heuristic solution: objective 9.0000000
Found heuristic solution: objective 7.0000000

Root simplex log...

Iteration    Objective       Primal Inf.    Dual Inf.      Time
       0    0.0000000e+00   7.000000e+00   0.000000e+00      6s
    4851    1.2325432e+00   3.485348e+02   0.000000e+00     11s
    5731    1.2354075e+00   2.188419e+01   0.000000e+00     15s
    7201    1.2362048e+00   2.557781e-01   0.000000e+00     20s
    8995    1.2364385e+00   0.000000e+00   0.000000e+00     24s

Root relaxation: objective 1.236439e+00, 8995 iterations, 18.57 seconds
Total elapsed time = 25.34s

    Nodes    |    Current Node    |     Objective Bounds      |     Work
 Expl Unexpl |  Obj  Depth IntInf | Incumbent    BestBd   Gap | It/Node Time

     0     0    1.23644    0 3285    7.00000    1.23644  82.3%     -   36s
     0     0    1.41828    0 2368    7.00000    1.41828  79.7%     -   97s
H    0     0                       6.0000000    1.41828  76.4%     -  129s
     0     0    1.42282    0 2224    6.00000    1.42282  76.3%     -  158s
     0     0    1.53606    0 2696    6.00000    1.53606  74.4%     -  181s
     0     0    1.53716    0 2581    6.00000    1.53716  74.4%     -  222s
     0     0    1.56519    0 2752    6.00000    1.56519  73.9%     -  252s
     0     0    1.56910    0 2707    6.00000    1.56910  73.8%     -  386s
     0     0    1.58757    0 2610    6.00000    1.58757  73.5%     -  414s
     0     0    1.59159    0 2692    6.00000    1.59159  73.5%     -  561s
     0     0    1.60922    0 2256    6.00000    1.60922  73.2%     -  593s
     0     0    1.60943    0 2247    6.00000    1.60943  73.2%     -  630s
     0     0    1.62205    0 2217    6.00000    1.62205  73.0%     -  661s
     0     0    1.62245    0 2530    6.00000    1.62245  73.0%     -  856s
     0     0    1.63455    0 2676    6.00000    1.63455  72.8%     -  894s
     0     0    1.63501    0 2657    6.00000    1.63501  72.7%     - 1059s
     0     0    1.64419    0 2636    6.00000    1.64419  72.6%     - 1095s
     0     0    1.64596    0 2671    6.00000    1.64596  72.6%     - 1157s
     0     0    1.65400    0 2258    6.00000    1.65400  72.4%     - 1191s
     0     0    1.65417    0 2350    6.00000    1.65417  72.4%     - 1370s
     0     0    1.66202    0 2150    6.00000    1.66202  72.3%     - 1411s
     0     0    1.66814    0 2284    6.00000    1.66814  72.2%     - 1466s
     0     0    1.66823    0 2260    6.00000    1.66823  72.2%     - 1496s
     0     0    1.67286    0 2319    6.00000    1.67286  72.1%     - 1538s
     0     0    1.67291    0 2296    6.00000    1.67291  72.1%     - 1735s
     0     0    1.67671    0 2473    6.00000    1.67671  72.1%     - 1783s
     0     0    1.68001    0 2169    6.00000    1.68001  72.0%     - 1901s
     0     0    1.68007    0 2237    6.00000    1.68007  72.0%     - 2104s
     0     0    1.68245    0 2315    6.00000    1.68245  72.0%     - 2153s
     0     0    1.68250    0 2353    6.00000    1.68250  72.0%     - 2168s
     0     0    1.68432    0 2313    6.00000    1.68432  71.9%     - 2213s
     0     0    1.68445    0 2317    6.00000    1.68445  71.9%     - 2446s
     0     0    1.68610    0 2356    6.00000    1.68610  71.9%     - 2492s
     0     0    1.68751    0 2207    6.00000    1.68751  71.9%     - 2562s
     0     0    1.68907    0 2413    6.00000    1.68907  71.8%     - 2642s
     0     0    1.68909    0 2424    6.00000    1.68909  71.8%     - 2943s
     0     0    1.69061    0 2271    6.00000    1.69061  71.8%     - 2997s
     0     0    1.69062    0 2269    6.00000    1.69062  71.8%     - 3014s
     0     0    1.69173    0 2463    6.00000    1.69173  71.8%     - 3064s
     0     0    1.69298    0 2421    6.00000    1.69298  71.8%     - 3369s
     0     0    1.69300    0 2394    6.00000    1.69300  71.8%     - 3400s
     0     0    1.69386    0 2379    6.00000    1.69386  71.8%     - 3449s
     0     0    1.69387    0 2381    6.00000    1.69387  71.8%     - 3495s
     0     0    1.69472    0 2265    6.00000    1.69472  71.8%     - 3544s
     0     0    1.69472    0 2265    6.00000    1.69472  71.8%     - 3546s

Cutting planes:
  Gomory: 4
  MIR: 2
  Zero half: 163

Explored 1 nodes (170279 simplex iterations) in 3600.08 seconds
Thread count was 4 (of 4 available processors)

Solution count 3: 6 7 9 

Time limit reached
Best objective 6.000000000000e+00, best bound 2.000000000000e+00, gap 66.6667%
